data;
param n:=50;
param w:=1 -111 2 -221 3 -38 4 161 5 213 6 -35 7 63 8 -64 9 181 10 163 11 103 12 160 13 119 14 -165 15 -45 16 -85 17 -240 18 113 19 45 20 -32 21 118 22 -230 23 -4 24 -119 25 241 26 131 27 134 28 -93 29 -83 30 75 31 -95 32 -71 33 -110 34 -181 35 76 36 205 37 226 38 -41 39 135 40 40 41 -107 42 -75 43 -152 44 -121 45 -130 46 214 47 -151 48 -97 49 21 50 -41;
